peakDumbCharging = 25900; 
Machine = anon_enum(16); 
machineSpeed = [3700,3700,3700,3700,3700,3700,3700,3700,3700,3700,3700,3700,3700,3700,3700,3700]; 
machineLoad = [3700,3700,3700,3700,3700,3700,3700,3700,3700,3700,3700,3700,3700,3700,3700,3700]; 
Car = anon_enum(30); 
demandCar = [22040,6480,3600,17960,11880,14280,2640,6000,1720,12600,6920,4120,23120,11520,15720,26360,11640,15600,4800,360,19160,1880,4040,5000,10880,13160,1200,16720,9800,33560]; 
arrivalCar = [68,66,64,63,61,59,58,57,57,56,56,56,49,46,46,46,46,45,45,44,41,40,38,38,36,35,34,33,32,27]; 
departureCar = [76,70,70,69,66,65,60,61,61,61,59,59,62,54,57,57,53,52,50,45,61,42,45,41,44,40,36,40,36,44]; 
